(set-logic ALL)
(declare-fun i1 () Int)
(declare-fun it732 () Int)
(declare-fun it15 () Int)
(declare-fun it733 () Int)
(declare-fun it734 () Int)
(declare-fun it14 () Int)
(declare-fun it735 () Int)
(declare-fun it13 () Int)
(declare-fun bt821 () Bool)
(declare-fun bt822 () Bool)
(declare-fun bt823 () Bool)
(declare-fun bt824 () Bool)
(declare-fun it17 () Int)
(declare-fun it16 () Int)
(declare-fun it18 () Int)
(declare-fun bt25 () Bool)
(declare-fun bt28 () Bool)
(declare-fun bt26 () Bool)
(declare-fun bt27 () Bool)
(declare-fun it739 () Int)
(declare-fun it740 () Int)
(declare-fun it741 () Int)
(declare-fun it742 () Int)
(declare-fun bt825 () Bool)
(declare-fun bt826 () Bool)
(declare-fun bt827 () Bool)
(declare-fun bt828 () Bool)
(declare-fun it829 () Int)
(assert (= (+ i1 (- 1)) 0))
(assert (= (+ it732 (- 2)) 0))
(assert (= (+ it733 (* it15 (- 1))) 0))
(assert (= (+ (* it14 (- 1)) it734) 0))
(assert (= (+ (* it13 (- 1)) it735) 0))
(assert (or (not bt821) (and false bt821)))
(assert (or bt822 (and false (not bt822))))
(assert (or (not bt823) (and false bt823)))
(assert (or (not bt824) (and false bt824)))
(assert (and bt27
     (not bt26)
     (not bt28)
     (not bt25)
     (= (+ it18 (- 1)) 0)
     (not bt823)
     (= (+ (* it16 (- 1)) it735) 0)
     (not bt821)
     (= (+ it732 (- 2)) 0)
     (= (+ (* it17 (- 1)) it734) 0)
     bt822
     (not bt824)))
(assert (= (+ it739 (- 2)) 0))
(assert (= (+ (* it18 (- 1)) it740) 0))
(assert (= (+ it741 (* it17 (- 1))) 0))
(assert (= (+ (* it16 (- 1)) it742) 0))
(assert (or (and (not bt27) (not bt825)) (and bt27 bt825)))
(assert (or (and (not bt28) (not bt826)) (and bt28 bt826)))
(assert (or (and bt26 bt827) (and (not bt26) (not bt827))))
(assert (or (and bt25 bt828) (and (not bt25) (not bt828))))
(assert (let ((a!1 (+ (* (+ 0 it740) (exp 3 (+ it829 (- 1))) (+ 0 (- 1)))
              (+ 0 it742))))
  (and bt825
       (>= (+ (* it739 (- 1)) 2) 0)
       (>= (+ it829 (- 1)) 0)
       (not bt827)
       (> (+ it742 (* it740 (- 1))) 0)
       (> a!1 (+ 0 0))
       (>= (+ it739 (- 2)) 0)
       (>= (* it741 (- 1)) 0)
       (not bt826)
       (not bt828))))
(check-sat)
